w = 15;
n = 25;
measures = [|2, 11,
|3, 2,
|7, 10,
|4, 8,
|5, 9,
|2, 7,
|1, 4,
|1, 6,
|5, 4,
|3, 8,
|3, 1,
|5, 5,
|1, 3,
|4, 12,
|2, 6,
|4, 2,
|4, 11,
|2, 10,
|2, 3,
|2, 11,
|4, 3,
|4, 26,
|4, 8,
|2, 3,
|2, 6,
|];
initial_x = [0, 2, 5, 0, 4, 9, 11, 12, 0, 5, 8, 0, 5, 6, 10, 0, 4, 8, 10, 12, 0, 4, 8, 12, 0];
initial_y = [0, 0, 0, 11, 11, 11, 11, 11, 20, 20, 20, 28, 28, 28, 28, 40, 40, 40, 40, 40, 51, 51, 51, 51, 77];